(set-logic HORN)
(declare-datatypes ((Bool_0 0)) (((false_0 ) (true_0 ))))
(declare-fun diseqBool_0 (Bool_0 Bool_0) Bool)
(declare-datatypes ((Nat_0 0)) (((zero_0 ) (succ_0 (p_0 Nat_0)))))
(declare-fun lt_0 (Bool_0 Nat_0 Nat_0) Bool)
(assert (diseqBool_0 false_0 true_0))
(assert (diseqBool_0 true_0 false_0))
(assert (forall ((x_2 Bool_0) (n_0 Nat_0) (z_0 Nat_0))
	(=> (lt_0 x_2 n_0 z_0) (lt_0 x_2 (succ_0 n_0) (succ_0 z_0)))))
(assert (forall ((z_0 Nat_0))
	(lt_0 true_0 zero_0 (succ_0 z_0))))
(assert (forall ((x_0 Nat_0))
	(lt_0 false_0 x_0 zero_0)))
(assert (forall ((x_6 Bool_0) (x_1 Nat_0) (y_1 Nat_0) (z_1 Nat_0))
	(=> (and (diseqBool_0 x_6 true_0) (lt_0 true_0 x_1 y_1) (lt_0 true_0 y_1 z_1) (lt_0 x_6 x_1 z_1)) false)))
(check-sat)
(get-model)
